minimize
obj: 1 x_1_ + 1 x_2_ + 1 x_3_ + 1 x_4_ + 1 x_5_ + 1 x_6_ + 1 x_7_ + 1 x_8_ + 1 x_9_ + 1 x_10_ + 1 x_11_ + 1 x_12_ + 1 x_13_ + 1 x_14_ + 1 x_15_ + 1 x_16_ + 1 x_17_ + 1 x_18_ + 1 x_19_ + 1 x_20_
subject to
c1_1: 1 t_1,1_ - 1 y_1,1_ <= 0
c2_1: 1 t_1,2_ - 1 y_1,1_ - 1 y_1,2_ <= 0
c3_1: 1 t_1,3_ - 1 y_1,2_ - 1 y_1,3_ <= 0
c4_1: 1 t_1,4_ - 1 y_1,3_ - 1 y_1,4_ <= 0
c5_1: 1 t_1,5_ - 1 y_1,4_ - 1 y_1,5_ <= 0
c6_1: 1 t_1,6_ - 1 y_1,5_ - 1 y_1,6_ <= 0
c7_1: 1 t_1,7_ - 1 y_1,6_ - 1 y_1,7_ <= 0
c8_1: 1 t_1,8_ - 1 y_1,7_ - 1 y_1,8_ <= 0
c9_1: 1 t_1,9_ - 1 y_1,8_ - 1 y_1,9_ <= 0
c10_1: 1 t_1,10_ - 1 y_1,9_ <= 0
c11_1: 1 t_2,1_ - 1 y_2,1_ <= 0
c12_1: 1 t_2,2_ - 1 y_2,1_ - 1 y_2,2_ <= 0
c13_1: 1 t_2,3_ - 1 y_2,2_ - 1 y_2,3_ <= 0
c14_1: 1 t_2,4_ - 1 y_2,3_ - 1 y_2,4_ <= 0
c15_1: 1 t_2,5_ - 1 y_2,4_ - 1 y_2,5_ <= 0
c16_1: 1 t_2,6_ - 1 y_2,5_ - 1 y_2,6_ <= 0
c17_1: 1 t_2,7_ - 1 y_2,6_ - 1 y_2,7_ <= 0
c18_1: 1 t_2,8_ - 1 y_2,7_ - 1 y_2,8_ <= 0
c19_1: 1 t_2,9_ - 1 y_2,8_ - 1 y_2,9_ <= 0
c20_1: 1 t_2,10_ - 1 y_2,9_ <= 0
c21_1: 1 t_3,1_ - 1 y_3,1_ <= 0
c22_1: 1 t_3,2_ - 1 y_3,1_ - 1 y_3,2_ <= 0
c23_1: 1 t_3,3_ - 1 y_3,2_ - 1 y_3,3_ <= 0
c24_1: 1 t_3,4_ - 1 y_3,3_ - 1 y_3,4_ <= 0
c25_1: 1 t_3,5_ - 1 y_3,4_ - 1 y_3,5_ <= 0
c26_1: 1 t_3,6_ - 1 y_3,5_ - 1 y_3,6_ <= 0
c27_1: 1 t_3,7_ - 1 y_3,6_ - 1 y_3,7_ <= 0
c28_1: 1 t_3,8_ - 1 y_3,7_ - 1 y_3,8_ <= 0
c29_1: 1 t_3,9_ - 1 y_3,8_ - 1 y_3,9_ <= 0
c30_1: 1 t_3,10_ - 1 y_3,9_ <= 0
c31_1: 1 t_4,1_ - 1 y_4,1_ <= 0
c32_1: 1 t_4,2_ - 1 y_4,1_ - 1 y_4,2_ <= 0
c33_1: 1 t_4,3_ - 1 y_4,2_ - 1 y_4,3_ <= 0
c34_1: 1 t_4,4_ - 1 y_4,3_ - 1 y_4,4_ <= 0
c35_1: 1 t_4,5_ - 1 y_4,4_ - 1 y_4,5_ <= 0
c36_1: 1 t_4,6_ - 1 y_4,5_ - 1 y_4,6_ <= 0
c37_1: 1 t_4,7_ - 1 y_4,6_ - 1 y_4,7_ <= 0
c38_1: 1 t_4,8_ - 1 y_4,7_ - 1 y_4,8_ <= 0
c39_1: 1 t_4,9_ - 1 y_4,8_ - 1 y_4,9_ <= 0
c40_1: 1 t_4,10_ - 1 y_4,9_ <= 0
c41_1: 1 t_5,1_ - 1 y_5,1_ <= 0
c42_1: 1 t_5,2_ - 1 y_5,1_ - 1 y_5,2_ <= 0
c43_1: 1 t_5,3_ - 1 y_5,2_ - 1 y_5,3_ <= 0
c44_1: 1 t_5,4_ - 1 y_5,3_ - 1 y_5,4_ <= 0
c45_1: 1 t_5,5_ - 1 y_5,4_ - 1 y_5,5_ <= 0
c46_1: 1 t_5,6_ - 1 y_5,5_ - 1 y_5,6_ <= 0
c47_1: 1 t_5,7_ - 1 y_5,6_ - 1 y_5,7_ <= 0
c48_1: 1 t_5,8_ - 1 y_5,7_ - 1 y_5,8_ <= 0
c49_1: 1 t_5,9_ - 1 y_5,8_ - 1 y_5,9_ <= 0
c50_1: 1 t_5,10_ - 1 y_5,9_ <= 0
c51_1: 1 t_6,1_ - 1 y_6,1_ <= 0
c52_1: 1 t_6,2_ - 1 y_6,1_ - 1 y_6,2_ <= 0
c53_1: 1 t_6,3_ - 1 y_6,2_ - 1 y_6,3_ <= 0
c54_1: 1 t_6,4_ - 1 y_6,3_ - 1 y_6,4_ <= 0
c55_1: 1 t_6,5_ - 1 y_6,4_ - 1 y_6,5_ <= 0
c56_1: 1 t_6,6_ - 1 y_6,5_ - 1 y_6,6_ <= 0
c57_1: 1 t_6,7_ - 1 y_6,6_ - 1 y_6,7_ <= 0
c58_1: 1 t_6,8_ - 1 y_6,7_ - 1 y_6,8_ <= 0
c59_1: 1 t_6,9_ - 1 y_6,8_ - 1 y_6,9_ <= 0
c60_1: 1 t_6,10_ - 1 y_6,9_ <= 0
c61: 1 t_7,1_ - 1 y_7,1_ <= 0
c62: 1 t_7,2_ - 1 y_7,1_ - 1 y_7,2_ <= 0
c63: 1 t_7,3_ - 1 y_7,2_ - 1 y_7,3_ <= 0
c64: 1 t_7,4_ - 1 y_7,3_ - 1 y_7,4_ <= 0
c65: 1 t_7,5_ - 1 y_7,4_ - 1 y_7,5_ <= 0
c66: 1 t_7,6_ - 1 y_7,5_ - 1 y_7,6_ <= 0
c67: 1 t_7,7_ - 1 y_7,6_ - 1 y_7,7_ <= 0
c68: 1 t_7,8_ - 1 y_7,7_ - 1 y_7,8_ <= 0
c69: 1 t_7,9_ - 1 y_7,8_ - 1 y_7,9_ <= 0
c70: 1 t_7,10_ - 1 y_7,9_ <= 0
c71: 1 t_8,1_ - 1 y_8,1_ <= 0
c72: 1 t_8,2_ - 1 y_8,1_ - 1 y_8,2_ <= 0
c73: 1 t_8,3_ - 1 y_8,2_ - 1 y_8,3_ <= 0
c74: 1 t_8,4_ - 1 y_8,3_ - 1 y_8,4_ <= 0
c75: 1 t_8,5_ - 1 y_8,4_ - 1 y_8,5_ <= 0
c76: 1 t_8,6_ - 1 y_8,5_ - 1 y_8,6_ <= 0
c77: 1 t_8,7_ - 1 y_8,6_ - 1 y_8,7_ <= 0
c78: 1 t_8,8_ - 1 y_8,7_ - 1 y_8,8_ <= 0
c79: 1 t_8,9_ - 1 y_8,8_ - 1 y_8,9_ <= 0
c80: 1 t_8,10_ - 1 y_8,9_ <= 0
c81: 1 t_9,1_ - 1 y_9,1_ <= 0
c82: 1 t_9,2_ - 1 y_9,1_ - 1 y_9,2_ <= 0
c83: 1 t_9,3_ - 1 y_9,2_ - 1 y_9,3_ <= 0
c84: 1 t_9,4_ - 1 y_9,3_ - 1 y_9,4_ <= 0
c85: 1 t_9,5_ - 1 y_9,4_ - 1 y_9,5_ <= 0
c86: 1 t_9,6_ - 1 y_9,5_ - 1 y_9,6_ <= 0
c87: 1 t_9,7_ - 1 y_9,6_ - 1 y_9,7_ <= 0
c88: 1 t_9,8_ - 1 y_9,7_ - 1 y_9,8_ <= 0
c89: 1 t_9,9_ - 1 y_9,8_ - 1 y_9,9_ <= 0
c90: 1 t_9,10_ - 1 y_9,9_ <= 0
c91: 1 t_10,1_ - 1 y_10,1_ <= 0
c92: 1 t_10,2_ - 1 y_10,1_ - 1 y_10,2_ <= 0
c93: 1 t_10,3_ - 1 y_10,2_ - 1 y_10,3_ <= 0
c94: 1 t_10,4_ - 1 y_10,3_ - 1 y_10,4_ <= 0
c95: 1 t_10,5_ - 1 y_10,4_ - 1 y_10,5_ <= 0
c96: 1 t_10,6_ - 1 y_10,5_ - 1 y_10,6_ <= 0
c97: 1 t_10,7_ - 1 y_10,6_ - 1 y_10,7_ <= 0
c98: 1 t_10,8_ - 1 y_10,7_ - 1 y_10,8_ <= 0
c99: 1 t_10,9_ - 1 y_10,8_ - 1 y_10,9_ <= 0
c100: 1 t_10,10_ - 1 y_10,9_ <= 0
c101: 1 t_11,1_ - 1 y_11,1_ <= 0
c102: 1 t_11,2_ - 1 y_11,1_ - 1 y_11,2_ <= 0
c103: 1 t_11,3_ - 1 y_11,2_ - 1 y_11,3_ <= 0
c104: 1 t_11,4_ - 1 y_11,3_ - 1 y_11,4_ <= 0
c105: 1 t_11,5_ - 1 y_11,4_ - 1 y_11,5_ <= 0
c106: 1 t_11,6_ - 1 y_11,5_ - 1 y_11,6_ <= 0
c107: 1 t_11,7_ - 1 y_11,6_ - 1 y_11,7_ <= 0
c108: 1 t_11,8_ - 1 y_11,7_ - 1 y_11,8_ <= 0
c109: 1 t_11,9_ - 1 y_11,8_ - 1 y_11,9_ <= 0
c110: 1 t_11,10_ - 1 y_11,9_ <= 0
c111: 1 t_12,1_ - 1 y_12,1_ <= 0
c112: 1 t_12,2_ - 1 y_12,1_ - 1 y_12,2_ <= 0
c113: 1 t_12,3_ - 1 y_12,2_ - 1 y_12,3_ <= 0
c114: 1 t_12,4_ - 1 y_12,3_ - 1 y_12,4_ <= 0
c115: 1 t_12,5_ - 1 y_12,4_ - 1 y_12,5_ <= 0
c116: 1 t_12,6_ - 1 y_12,5_ - 1 y_12,6_ <= 0
c117: 1 t_12,7_ - 1 y_12,6_ - 1 y_12,7_ <= 0
c118: 1 t_12,8_ - 1 y_12,7_ - 1 y_12,8_ <= 0
c119: 1 t_12,9_ - 1 y_12,8_ - 1 y_12,9_ <= 0
c120: 1 t_12,10_ - 1 y_12,9_ <= 0
c121: 1 t_13,1_ - 1 y_13,1_ <= 0
c122: 1 t_13,2_ - 1 y_13,1_ - 1 y_13,2_ <= 0
c123: 1 t_13,3_ - 1 y_13,2_ - 1 y_13,3_ <= 0
c124: 1 t_13,4_ - 1 y_13,3_ - 1 y_13,4_ <= 0
c125: 1 t_13,5_ - 1 y_13,4_ - 1 y_13,5_ <= 0
c126: 1 t_13,6_ - 1 y_13,5_ - 1 y_13,6_ <= 0
c127: 1 t_13,7_ - 1 y_13,6_ - 1 y_13,7_ <= 0
c128: 1 t_13,8_ - 1 y_13,7_ - 1 y_13,8_ <= 0
c129: 1 t_13,9_ - 1 y_13,8_ - 1 y_13,9_ <= 0
c130: 1 t_13,10_ - 1 y_13,9_ <= 0
c131: 1 t_14,1_ - 1 y_14,1_ <= 0
c132: 1 t_14,2_ - 1 y_14,1_ - 1 y_14,2_ <= 0
c133: 1 t_14,3_ - 1 y_14,2_ - 1 y_14,3_ <= 0
c134: 1 t_14,4_ - 1 y_14,3_ - 1 y_14,4_ <= 0
c135: 1 t_14,5_ - 1 y_14,4_ - 1 y_14,5_ <= 0
c136: 1 t_14,6_ - 1 y_14,5_ - 1 y_14,6_ <= 0
c137: 1 t_14,7_ - 1 y_14,6_ - 1 y_14,7_ <= 0
c138: 1 t_14,8_ - 1 y_14,7_ - 1 y_14,8_ <= 0
c139: 1 t_14,9_ - 1 y_14,8_ - 1 y_14,9_ <= 0
c140: 1 t_14,10_ - 1 y_14,9_ <= 0
c141: 1 t_15,1_ - 1 y_15,1_ <= 0
c142: 1 t_15,2_ - 1 y_15,1_ - 1 y_15,2_ <= 0
c143: 1 t_15,3_ - 1 y_15,2_ - 1 y_15,3_ <= 0
c144: 1 t_15,4_ - 1 y_15,3_ - 1 y_15,4_ <= 0
c145: 1 t_15,5_ - 1 y_15,4_ - 1 y_15,5_ <= 0
c146: 1 t_15,6_ - 1 y_15,5_ - 1 y_15,6_ <= 0
c147: 1 t_15,7_ - 1 y_15,6_ - 1 y_15,7_ <= 0
c148: 1 t_15,8_ - 1 y_15,7_ - 1 y_15,8_ <= 0
c149: 1 t_15,9_ - 1 y_15,8_ - 1 y_15,9_ <= 0
c150: 1 t_15,10_ - 1 y_15,9_ <= 0
c151: 1 t_16,1_ - 1 y_16,1_ <= 0
c152: 1 t_16,2_ - 1 y_16,1_ - 1 y_16,2_ <= 0
c153: 1 t_16,3_ - 1 y_16,2_ - 1 y_16,3_ <= 0
c154: 1 t_16,4_ - 1 y_16,3_ - 1 y_16,4_ <= 0
c155: 1 t_16,5_ - 1 y_16,4_ - 1 y_16,5_ <= 0
c156: 1 t_16,6_ - 1 y_16,5_ - 1 y_16,6_ <= 0
c157: 1 t_16,7_ - 1 y_16,6_ - 1 y_16,7_ <= 0
c158: 1 t_16,8_ - 1 y_16,7_ - 1 y_16,8_ <= 0
c159: 1 t_16,9_ - 1 y_16,8_ - 1 y_16,9_ <= 0
c160: 1 t_16,10_ - 1 y_16,9_ <= 0
c161: 1 t_17,1_ - 1 y_17,1_ <= 0
c162: 1 t_17,2_ - 1 y_17,1_ - 1 y_17,2_ <= 0
c163: 1 t_17,3_ - 1 y_17,2_ - 1 y_17,3_ <= 0
c164: 1 t_17,4_ - 1 y_17,3_ - 1 y_17,4_ <= 0
c165: 1 t_17,5_ - 1 y_17,4_ - 1 y_17,5_ <= 0
c166: 1 t_17,6_ - 1 y_17,5_ - 1 y_17,6_ <= 0
c167: 1 t_17,7_ - 1 y_17,6_ - 1 y_17,7_ <= 0
c168: 1 t_17,8_ - 1 y_17,7_ - 1 y_17,8_ <= 0
c169: 1 t_17,9_ - 1 y_17,8_ - 1 y_17,9_ <= 0
c170: 1 t_17,10_ - 1 y_17,9_ <= 0
c171: 1 t_18,1_ - 1 y_18,1_ <= 0
c172: 1 t_18,2_ - 1 y_18,1_ - 1 y_18,2_ <= 0
c173: 1 t_18,3_ - 1 y_18,2_ - 1 y_18,3_ <= 0
c174: 1 t_18,4_ - 1 y_18,3_ - 1 y_18,4_ <= 0
c175: 1 t_18,5_ - 1 y_18,4_ - 1 y_18,5_ <= 0
c176: 1 t_18,6_ - 1 y_18,5_ - 1 y_18,6_ <= 0
c177: 1 t_18,7_ - 1 y_18,6_ - 1 y_18,7_ <= 0
c178: 1 t_18,8_ - 1 y_18,7_ - 1 y_18,8_ <= 0
c179: 1 t_18,9_ - 1 y_18,8_ - 1 y_18,9_ <= 0
c180: 1 t_18,10_ - 1 y_18,9_ <= 0
c181: 1 t_19,1_ - 1 y_19,1_ <= 0
c182: 1 t_19,2_ - 1 y_19,1_ - 1 y_19,2_ <= 0
c183: 1 t_19,3_ - 1 y_19,2_ - 1 y_19,3_ <= 0
c184: 1 t_19,4_ - 1 y_19,3_ - 1 y_19,4_ <= 0
c185: 1 t_19,5_ - 1 y_19,4_ - 1 y_19,5_ <= 0
c186: 1 t_19,6_ - 1 y_19,5_ - 1 y_19,6_ <= 0
c187: 1 t_19,7_ - 1 y_19,6_ - 1 y_19,7_ <= 0
c188: 1 t_19,8_ - 1 y_19,7_ - 1 y_19,8_ <= 0
c189: 1 t_19,9_ - 1 y_19,8_ - 1 y_19,9_ <= 0
c190: 1 t_19,10_ - 1 y_19,9_ <= 0
c191: 1 t_20,1_ - 1 y_20,1_ <= 0
c192: 1 t_20,2_ - 1 y_20,1_ - 1 y_20,2_ <= 0
c193: 1 t_20,3_ - 1 y_20,2_ - 1 y_20,3_ <= 0
c194: 1 t_20,4_ - 1 y_20,3_ - 1 y_20,4_ <= 0
c195: 1 t_20,5_ - 1 y_20,4_ - 1 y_20,5_ <= 0
c196: 1 t_20,6_ - 1 y_20,5_ - 1 y_20,6_ <= 0
c197: 1 t_20,7_ - 1 y_20,6_ - 1 y_20,7_ <= 0
c198: 1 t_20,8_ - 1 y_20,7_ - 1 y_20,8_ <= 0
c199: 1 t_20,9_ - 1 y_20,8_ - 1 y_20,9_ <= 0
c200: 1 t_20,10_ - 1 y_20,9_ <= 0
c201: 4 t_1,1_ + 4 t_2,1_ + 4 t_3,1_ + 4 t_4,1_ + 4 t_5,1_ + 4 t_6,1_ + 4 t_7,1_ + 4 t_8,1_ + 4 t_9,1_ + 4 t_10,1_ + 4 t_11,1_ + 4 t_12,1_ + 4 t_13,1_ + 4 t_14,1_ + 4 t_15,1_ + 4 t_16,1_ + 4 t_17,1_ + 4 t_18,1_ + 4 t_19,1_ + 4 t_20,1_ + 2.4197530864197523 t_1,2_ + 2.4197530864197523 t_2,2_ + 2.4197530864197523 t_3,2_ + 2.4197530864197523 t_4,2_ + 2.4197530864197523 t_5,2_ + 2.4197530864197523 t_6,2_ + 2.4197530864197523 t_7,2_ + 2.4197530864197523 t_8,2_ + 2.4197530864197523 t_9,2_ + 2.4197530864197523 t_10,2_ + 2.4197530864197523 t_11,2_ + 2.4197530864197523 t_12,2_ + 2.4197530864197523 t_13,2_ + 2.4197530864197523 t_14,2_ + 2.4197530864197523 t_15,2_ + 2.4197530864197523 t_16,2_ + 2.4197530864197523 t_17,2_ + 2.4197530864197523 t_18,2_ + 2.4197530864197523 t_19,2_ + 2.4197530864197523 t_20,2_ + 1.234567901234568 t_1,3_ + 1.234567901234568 t_2,3_ + 1.234567901234568 t_3,3_ + 1.234567901234568 t_4,3_ + 1.234567901234568 t_5,3_ + 1.234567901234568 t_6,3_ + 1.234567901234568 t_7,3_ + 1.234567901234568 t_8,3_ + 1.234567901234568 t_9,3_ + 1.234567901234568 t_10,3_ + 1.234567901234568 t_11,3_ + 1.234567901234568 t_12,3_ + 1.234567901234568 t_13,3_ + 1.234567901234568 t_14,3_ + 1.234567901234568 t_15,3_ + 1.234567901234568 t_16,3_ + 1.234567901234568 t_17,3_ + 1.234567901234568 t_18,3_ + 1.234567901234568 t_19,3_ + 1.234567901234568 t_20,3_ + 0.4444444444444447 t_1,4_ + 0.4444444444444447 t_2,4_ + 0.4444444444444447 t_3,4_ + 0.4444444444444447 t_4,4_ + 0.4444444444444447 t_5,4_ + 0.4444444444444447 t_6,4_ + 0.4444444444444447 t_7,4_ + 0.4444444444444447 t_8,4_ + 0.4444444444444447 t_9,4_ + 0.4444444444444447 t_10,4_ + 0.4444444444444447 t_11,4_ + 0.4444444444444447 t_12,4_ + 0.4444444444444447 t_13,4_ + 0.4444444444444447 t_14,4_ + 0.4444444444444447 t_15,4_ + 0.4444444444444447 t_16,4_ + 0.4444444444444447 t_17,4_ + 0.4444444444444447 t_18,4_ + 0.4444444444444447 t_19,4_ + 0.4444444444444447 t_20,4_ + 0.04938271604938276 t_1,5_ + 0.04938271604938276 t_2,5_ + 0.04938271604938276 t_3,5_ + 0.04938271604938276 t_4,5_ + 0.04938271604938276 t_5,5_ + 0.04938271604938276 t_6,5_ + 0.04938271604938276 t_7,5_ + 0.04938271604938276 t_8,5_ + 0.04938271604938276 t_9,5_ + 0.04938271604938276 t_10,5_ + 0.04938271604938276 t_11,5_ + 0.04938271604938276 t_12,5_ + 0.04938271604938276 t_13,5_ + 0.04938271604938276 t_14,5_ + 0.04938271604938276 t_15,5_ + 0.04938271604938276 t_16,5_ + 0.04938271604938276 t_17,5_ + 0.04938271604938276 t_18,5_ + 0.04938271604938276 t_19,5_ + 0.04938271604938276 t_20,5_ + 0.04938271604938276 t_1,6_ + 0.04938271604938276 t_2,6_ + 0.04938271604938276 t_3,6_ + 0.04938271604938276 t_4,6_ + 0.04938271604938276 t_5,6_ + 0.04938271604938276 t_6,6_ + 0.04938271604938276 t_7,6_ + 0.04938271604938276 t_8,6_ + 0.04938271604938276 t_9,6_ + 0.04938271604938276 t_10,6_ + 0.04938271604938276 t_11,6_ + 0.04938271604938276 t_12,6_ + 0.04938271604938276 t_13,6_ + 0.04938271604938276 t_14,6_ + 0.04938271604938276 t_15,6_ + 0.04938271604938276 t_16,6_ + 0.04938271604938276 t_17,6_ + 0.04938271604938276 t_18,6_ + 0.04938271604938276 t_19,6_ + 0.04938271604938276 t_20,6_ + 0.44444444444444425 t_1,7_ + 0.44444444444444425 t_2,7_ + 0.44444444444444425 t_3,7_ + 0.44444444444444425 t_4,7_ + 0.44444444444444425 t_5,7_ + 0.44444444444444425 t_6,7_ + 0.44444444444444425 t_7,7_ + 0.44444444444444425 t_8,7_ + 0.44444444444444425 t_9,7_ + 0.44444444444444425 t_10,7_ + 0.44444444444444425 t_11,7_ + 0.44444444444444425 t_12,7_ + 0.44444444444444425 t_13,7_ + 0.44444444444444425 t_14,7_ + 0.44444444444444425 t_15,7_ + 0.44444444444444425 t_16,7_ + 0.44444444444444425 t_17,7_ + 0.44444444444444425 t_18,7_ + 0.44444444444444425 t_19,7_ + 0.44444444444444425 t_20,7_ + 1.234567901234568 t_1,8_ + 1.234567901234568 t_2,8_ + 1.234567901234568 t_3,8_ + 1.234567901234568 t_4,8_ + 1.234567901234568 t_5,8_ + 1.234567901234568 t_6,8_ + 1.234567901234568 t_7,8_ + 1.234567901234568 t_8,8_ + 1.234567901234568 t_9,8_ + 1.234567901234568 t_10,8_ + 1.234567901234568 t_11,8_ + 1.234567901234568 t_12,8_ + 1.234567901234568 t_13,8_ + 1.234567901234568 t_14,8_ + 1.234567901234568 t_15,8_ + 1.234567901234568 t_16,8_ + 1.234567901234568 t_17,8_ + 1.234567901234568 t_18,8_ + 1.234567901234568 t_19,8_ + 1.234567901234568 t_20,8_ + 2.4197530864197523 t_1,9_ + 2.4197530864197523 t_2,9_ + 2.4197530864197523 t_3,9_ + 2.4197530864197523 t_4,9_ + 2.4197530864197523 t_5,9_ + 2.4197530864197523 t_6,9_ + 2.4197530864197523 t_7,9_ + 2.4197530864197523 t_8,9_ + 2.4197530864197523 t_9,9_ + 2.4197530864197523 t_10,9_ + 2.4197530864197523 t_11,9_ + 2.4197530864197523 t_12,9_ + 2.4197530864197523 t_13,9_ + 2.4197530864197523 t_14,9_ + 2.4197530864197523 t_15,9_ + 2.4197530864197523 t_16,9_ + 2.4197530864197523 t_17,9_ + 2.4197530864197523 t_18,9_ + 2.4197530864197523 t_19,9_ + 2.4197530864197523 t_20,9_ + 4 t_1,10_ + 4 t_2,10_ + 4 t_3,10_ + 4 t_4,10_ + 4 t_5,10_ + 4 t_6,10_ + 4 t_7,10_ + 4 t_8,10_ + 4 t_9,10_ + 4 t_10,10_ + 4 t_11,10_ + 4 t_12,10_ + 4 t_13,10_ + 4 t_14,10_ + 4 t_15,10_ + 4 t_16,10_ + 4 t_17,10_ + 4 t_18,10_ + 4 t_19,10_ + 4 t_20,10_ <= 1
c1: 1 y_1,1_ + 1 y_1,2_ + 1 y_1,3_ + 1 y_1,4_ + 1 y_1,5_ + 1 y_1,6_ + 1 y_1,7_ + 1 y_1,8_ + 1 y_1,9_ = 1
c2: 1 t_1,1_ + 1 t_1,2_ + 1 t_1,3_ + 1 t_1,4_ + 1 t_1,5_ + 1 t_1,6_ + 1 t_1,7_ + 1 t_1,8_ + 1 t_1,9_ + 1 t_1,10_ = 1
c3: -2 t_1,1_ - 1.5555555555555554 t_1,2_ - 1.1111111111111112 t_1,3_ - 0.6666666666666669 t_1,4_ - 0.22222222222222232 t_1,5_ + 0.22222222222222232 t_1,6_ + 0.6666666666666665 t_1,7_ + 1.1111111111111112 t_1,8_ + 1.5555555555555554 t_1,9_ + 2 t_1,10_ - 1 x_1_ = 0
c4: 1 y_2,1_ + 1 y_2,2_ + 1 y_2,3_ + 1 y_2,4_ + 1 y_2,5_ + 1 y_2,6_ + 1 y_2,7_ + 1 y_2,8_ + 1 y_2,9_ = 1
c5: 1 t_2,1_ + 1 t_2,2_ + 1 t_2,3_ + 1 t_2,4_ + 1 t_2,5_ + 1 t_2,6_ + 1 t_2,7_ + 1 t_2,8_ + 1 t_2,9_ + 1 t_2,10_ = 1
c6: -2 t_2,1_ - 1.5555555555555554 t_2,2_ - 1.1111111111111112 t_2,3_ - 0.6666666666666669 t_2,4_ - 0.22222222222222232 t_2,5_ + 0.22222222222222232 t_2,6_ + 0.6666666666666665 t_2,7_ + 1.1111111111111112 t_2,8_ + 1.5555555555555554 t_2,9_ + 2 t_2,10_ - 1 x_2_ = 0
c7: 1 y_3,1_ + 1 y_3,2_ + 1 y_3,3_ + 1 y_3,4_ + 1 y_3,5_ + 1 y_3,6_ + 1 y_3,7_ + 1 y_3,8_ + 1 y_3,9_ = 1
c8: 1 t_3,1_ + 1 t_3,2_ + 1 t_3,3_ + 1 t_3,4_ + 1 t_3,5_ + 1 t_3,6_ + 1 t_3,7_ + 1 t_3,8_ + 1 t_3,9_ + 1 t_3,10_ = 1
c9: -2 t_3,1_ - 1.5555555555555554 t_3,2_ - 1.1111111111111112 t_3,3_ - 0.6666666666666669 t_3,4_ - 0.22222222222222232 t_3,5_ + 0.22222222222222232 t_3,6_ + 0.6666666666666665 t_3,7_ + 1.1111111111111112 t_3,8_ + 1.5555555555555554 t_3,9_ + 2 t_3,10_ - 1 x_3_ = 0
c10: 1 y_4,1_ + 1 y_4,2_ + 1 y_4,3_ + 1 y_4,4_ + 1 y_4,5_ + 1 y_4,6_ + 1 y_4,7_ + 1 y_4,8_ + 1 y_4,9_ = 1
c11: 1 t_4,1_ + 1 t_4,2_ + 1 t_4,3_ + 1 t_4,4_ + 1 t_4,5_ + 1 t_4,6_ + 1 t_4,7_ + 1 t_4,8_ + 1 t_4,9_ + 1 t_4,10_ = 1
c12: -2 t_4,1_ - 1.5555555555555554 t_4,2_ - 1.1111111111111112 t_4,3_ - 0.6666666666666669 t_4,4_ - 0.22222222222222232 t_4,5_ + 0.22222222222222232 t_4,6_ + 0.6666666666666665 t_4,7_ + 1.1111111111111112 t_4,8_ + 1.5555555555555554 t_4,9_ + 2 t_4,10_ - 1 x_4_ = 0
c13: 1 y_5,1_ + 1 y_5,2_ + 1 y_5,3_ + 1 y_5,4_ + 1 y_5,5_ + 1 y_5,6_ + 1 y_5,7_ + 1 y_5,8_ + 1 y_5,9_ = 1
c14: 1 t_5,1_ + 1 t_5,2_ + 1 t_5,3_ + 1 t_5,4_ + 1 t_5,5_ + 1 t_5,6_ + 1 t_5,7_ + 1 t_5,8_ + 1 t_5,9_ + 1 t_5,10_ = 1
c15: -2 t_5,1_ - 1.5555555555555554 t_5,2_ - 1.1111111111111112 t_5,3_ - 0.6666666666666669 t_5,4_ - 0.22222222222222232 t_5,5_ + 0.22222222222222232 t_5,6_ + 0.6666666666666665 t_5,7_ + 1.1111111111111112 t_5,8_ + 1.5555555555555554 t_5,9_ + 2 t_5,10_ - 1 x_5_ = 0
c16: 1 y_6,1_ + 1 y_6,2_ + 1 y_6,3_ + 1 y_6,4_ + 1 y_6,5_ + 1 y_6,6_ + 1 y_6,7_ + 1 y_6,8_ + 1 y_6,9_ = 1
c17: 1 t_6,1_ + 1 t_6,2_ + 1 t_6,3_ + 1 t_6,4_ + 1 t_6,5_ + 1 t_6,6_ + 1 t_6,7_ + 1 t_6,8_ + 1 t_6,9_ + 1 t_6,10_ = 1
c18: -2 t_6,1_ - 1.5555555555555554 t_6,2_ - 1.1111111111111112 t_6,3_ - 0.6666666666666669 t_6,4_ - 0.22222222222222232 t_6,5_ + 0.22222222222222232 t_6,6_ + 0.6666666666666665 t_6,7_ + 1.1111111111111112 t_6,8_ + 1.5555555555555554 t_6,9_ + 2 t_6,10_ - 1 x_6_ = 0
c19: 1 y_7,1_ + 1 y_7,2_ + 1 y_7,3_ + 1 y_7,4_ + 1 y_7,5_ + 1 y_7,6_ + 1 y_7,7_ + 1 y_7,8_ + 1 y_7,9_ = 1
c20: 1 t_7,1_ + 1 t_7,2_ + 1 t_7,3_ + 1 t_7,4_ + 1 t_7,5_ + 1 t_7,6_ + 1 t_7,7_ + 1 t_7,8_ + 1 t_7,9_ + 1 t_7,10_ = 1
c21: -2 t_7,1_ - 1.5555555555555554 t_7,2_ - 1.1111111111111112 t_7,3_ - 0.6666666666666669 t_7,4_ - 0.22222222222222232 t_7,5_ + 0.22222222222222232 t_7,6_ + 0.6666666666666665 t_7,7_ + 1.1111111111111112 t_7,8_ + 1.5555555555555554 t_7,9_ + 2 t_7,10_ - 1 x_7_ = 0
c22: 1 y_8,1_ + 1 y_8,2_ + 1 y_8,3_ + 1 y_8,4_ + 1 y_8,5_ + 1 y_8,6_ + 1 y_8,7_ + 1 y_8,8_ + 1 y_8,9_ = 1
c23: 1 t_8,1_ + 1 t_8,2_ + 1 t_8,3_ + 1 t_8,4_ + 1 t_8,5_ + 1 t_8,6_ + 1 t_8,7_ + 1 t_8,8_ + 1 t_8,9_ + 1 t_8,10_ = 1
c24: -2 t_8,1_ - 1.5555555555555554 t_8,2_ - 1.1111111111111112 t_8,3_ - 0.6666666666666669 t_8,4_ - 0.22222222222222232 t_8,5_ + 0.22222222222222232 t_8,6_ + 0.6666666666666665 t_8,7_ + 1.1111111111111112 t_8,8_ + 1.5555555555555554 t_8,9_ + 2 t_8,10_ - 1 x_8_ = 0
c25: 1 y_9,1_ + 1 y_9,2_ + 1 y_9,3_ + 1 y_9,4_ + 1 y_9,5_ + 1 y_9,6_ + 1 y_9,7_ + 1 y_9,8_ + 1 y_9,9_ = 1
c26: 1 t_9,1_ + 1 t_9,2_ + 1 t_9,3_ + 1 t_9,4_ + 1 t_9,5_ + 1 t_9,6_ + 1 t_9,7_ + 1 t_9,8_ + 1 t_9,9_ + 1 t_9,10_ = 1
c27: -2 t_9,1_ - 1.5555555555555554 t_9,2_ - 1.1111111111111112 t_9,3_ - 0.6666666666666669 t_9,4_ - 0.22222222222222232 t_9,5_ + 0.22222222222222232 t_9,6_ + 0.6666666666666665 t_9,7_ + 1.1111111111111112 t_9,8_ + 1.5555555555555554 t_9,9_ + 2 t_9,10_ - 1 x_9_ = 0
c28: 1 y_10,1_ + 1 y_10,2_ + 1 y_10,3_ + 1 y_10,4_ + 1 y_10,5_ + 1 y_10,6_ + 1 y_10,7_ + 1 y_10,8_ + 1 y_10,9_ = 1
c29: 1 t_10,1_ + 1 t_10,2_ + 1 t_10,3_ + 1 t_10,4_ + 1 t_10,5_ + 1 t_10,6_ + 1 t_10,7_ + 1 t_10,8_ + 1 t_10,9_ + 1 t_10,10_ = 1
c30: -2 t_10,1_ - 1.5555555555555554 t_10,2_ - 1.1111111111111112 t_10,3_ - 0.6666666666666669 t_10,4_ - 0.22222222222222232 t_10,5_ + 0.22222222222222232 t_10,6_ + 0.6666666666666665 t_10,7_ + 1.1111111111111112 t_10,8_ + 1.5555555555555554 t_10,9_ + 2 t_10,10_ - 1 x_10_ = 0
c31: 1 y_11,1_ + 1 y_11,2_ + 1 y_11,3_ + 1 y_11,4_ + 1 y_11,5_ + 1 y_11,6_ + 1 y_11,7_ + 1 y_11,8_ + 1 y_11,9_ = 1
c32: 1 t_11,1_ + 1 t_11,2_ + 1 t_11,3_ + 1 t_11,4_ + 1 t_11,5_ + 1 t_11,6_ + 1 t_11,7_ + 1 t_11,8_ + 1 t_11,9_ + 1 t_11,10_ = 1
c33: -2 t_11,1_ - 1.5555555555555554 t_11,2_ - 1.1111111111111112 t_11,3_ - 0.6666666666666669 t_11,4_ - 0.22222222222222232 t_11,5_ + 0.22222222222222232 t_11,6_ + 0.6666666666666665 t_11,7_ + 1.1111111111111112 t_11,8_ + 1.5555555555555554 t_11,9_ + 2 t_11,10_ - 1 x_11_ = 0
c34: 1 y_12,1_ + 1 y_12,2_ + 1 y_12,3_ + 1 y_12,4_ + 1 y_12,5_ + 1 y_12,6_ + 1 y_12,7_ + 1 y_12,8_ + 1 y_12,9_ = 1
c35: 1 t_12,1_ + 1 t_12,2_ + 1 t_12,3_ + 1 t_12,4_ + 1 t_12,5_ + 1 t_12,6_ + 1 t_12,7_ + 1 t_12,8_ + 1 t_12,9_ + 1 t_12,10_ = 1
c36: -2 t_12,1_ - 1.5555555555555554 t_12,2_ - 1.1111111111111112 t_12,3_ - 0.6666666666666669 t_12,4_ - 0.22222222222222232 t_12,5_ + 0.22222222222222232 t_12,6_ + 0.6666666666666665 t_12,7_ + 1.1111111111111112 t_12,8_ + 1.5555555555555554 t_12,9_ + 2 t_12,10_ - 1 x_12_ = 0
c37: 1 y_13,1_ + 1 y_13,2_ + 1 y_13,3_ + 1 y_13,4_ + 1 y_13,5_ + 1 y_13,6_ + 1 y_13,7_ + 1 y_13,8_ + 1 y_13,9_ = 1
c38: 1 t_13,1_ + 1 t_13,2_ + 1 t_13,3_ + 1 t_13,4_ + 1 t_13,5_ + 1 t_13,6_ + 1 t_13,7_ + 1 t_13,8_ + 1 t_13,9_ + 1 t_13,10_ = 1
c39: -2 t_13,1_ - 1.5555555555555554 t_13,2_ - 1.1111111111111112 t_13,3_ - 0.6666666666666669 t_13,4_ - 0.22222222222222232 t_13,5_ + 0.22222222222222232 t_13,6_ + 0.6666666666666665 t_13,7_ + 1.1111111111111112 t_13,8_ + 1.5555555555555554 t_13,9_ + 2 t_13,10_ - 1 x_13_ = 0
c40: 1 y_14,1_ + 1 y_14,2_ + 1 y_14,3_ + 1 y_14,4_ + 1 y_14,5_ + 1 y_14,6_ + 1 y_14,7_ + 1 y_14,8_ + 1 y_14,9_ = 1
c41: 1 t_14,1_ + 1 t_14,2_ + 1 t_14,3_ + 1 t_14,4_ + 1 t_14,5_ + 1 t_14,6_ + 1 t_14,7_ + 1 t_14,8_ + 1 t_14,9_ + 1 t_14,10_ = 1
c42: -2 t_14,1_ - 1.5555555555555554 t_14,2_ - 1.1111111111111112 t_14,3_ - 0.6666666666666669 t_14,4_ - 0.22222222222222232 t_14,5_ + 0.22222222222222232 t_14,6_ + 0.6666666666666665 t_14,7_ + 1.1111111111111112 t_14,8_ + 1.5555555555555554 t_14,9_ + 2 t_14,10_ - 1 x_14_ = 0
c43: 1 y_15,1_ + 1 y_15,2_ + 1 y_15,3_ + 1 y_15,4_ + 1 y_15,5_ + 1 y_15,6_ + 1 y_15,7_ + 1 y_15,8_ + 1 y_15,9_ = 1
c44: 1 t_15,1_ + 1 t_15,2_ + 1 t_15,3_ + 1 t_15,4_ + 1 t_15,5_ + 1 t_15,6_ + 1 t_15,7_ + 1 t_15,8_ + 1 t_15,9_ + 1 t_15,10_ = 1
c45: -2 t_15,1_ - 1.5555555555555554 t_15,2_ - 1.1111111111111112 t_15,3_ - 0.6666666666666669 t_15,4_ - 0.22222222222222232 t_15,5_ + 0.22222222222222232 t_15,6_ + 0.6666666666666665 t_15,7_ + 1.1111111111111112 t_15,8_ + 1.5555555555555554 t_15,9_ + 2 t_15,10_ - 1 x_15_ = 0
c46: 1 y_16,1_ + 1 y_16,2_ + 1 y_16,3_ + 1 y_16,4_ + 1 y_16,5_ + 1 y_16,6_ + 1 y_16,7_ + 1 y_16,8_ + 1 y_16,9_ = 1
c47: 1 t_16,1_ + 1 t_16,2_ + 1 t_16,3_ + 1 t_16,4_ + 1 t_16,5_ + 1 t_16,6_ + 1 t_16,7_ + 1 t_16,8_ + 1 t_16,9_ + 1 t_16,10_ = 1
c48: -2 t_16,1_ - 1.5555555555555554 t_16,2_ - 1.1111111111111112 t_16,3_ - 0.6666666666666669 t_16,4_ - 0.22222222222222232 t_16,5_ + 0.22222222222222232 t_16,6_ + 0.6666666666666665 t_16,7_ + 1.1111111111111112 t_16,8_ + 1.5555555555555554 t_16,9_ + 2 t_16,10_ - 1 x_16_ = 0
c49: 1 y_17,1_ + 1 y_17,2_ + 1 y_17,3_ + 1 y_17,4_ + 1 y_17,5_ + 1 y_17,6_ + 1 y_17,7_ + 1 y_17,8_ + 1 y_17,9_ = 1
c50: 1 t_17,1_ + 1 t_17,2_ + 1 t_17,3_ + 1 t_17,4_ + 1 t_17,5_ + 1 t_17,6_ + 1 t_17,7_ + 1 t_17,8_ + 1 t_17,9_ + 1 t_17,10_ = 1
c51: -2 t_17,1_ - 1.5555555555555554 t_17,2_ - 1.1111111111111112 t_17,3_ - 0.6666666666666669 t_17,4_ - 0.22222222222222232 t_17,5_ + 0.22222222222222232 t_17,6_ + 0.6666666666666665 t_17,7_ + 1.1111111111111112 t_17,8_ + 1.5555555555555554 t_17,9_ + 2 t_17,10_ - 1 x_17_ = 0
c52: 1 y_18,1_ + 1 y_18,2_ + 1 y_18,3_ + 1 y_18,4_ + 1 y_18,5_ + 1 y_18,6_ + 1 y_18,7_ + 1 y_18,8_ + 1 y_18,9_ = 1
c53: 1 t_18,1_ + 1 t_18,2_ + 1 t_18,3_ + 1 t_18,4_ + 1 t_18,5_ + 1 t_18,6_ + 1 t_18,7_ + 1 t_18,8_ + 1 t_18,9_ + 1 t_18,10_ = 1
c54: -2 t_18,1_ - 1.5555555555555554 t_18,2_ - 1.1111111111111112 t_18,3_ - 0.6666666666666669 t_18,4_ - 0.22222222222222232 t_18,5_ + 0.22222222222222232 t_18,6_ + 0.6666666666666665 t_18,7_ + 1.1111111111111112 t_18,8_ + 1.5555555555555554 t_18,9_ + 2 t_18,10_ - 1 x_18_ = 0
c55: 1 y_19,1_ + 1 y_19,2_ + 1 y_19,3_ + 1 y_19,4_ + 1 y_19,5_ + 1 y_19,6_ + 1 y_19,7_ + 1 y_19,8_ + 1 y_19,9_ = 1
c56: 1 t_19,1_ + 1 t_19,2_ + 1 t_19,3_ + 1 t_19,4_ + 1 t_19,5_ + 1 t_19,6_ + 1 t_19,7_ + 1 t_19,8_ + 1 t_19,9_ + 1 t_19,10_ = 1
c57: -2 t_19,1_ - 1.5555555555555554 t_19,2_ - 1.1111111111111112 t_19,3_ - 0.6666666666666669 t_19,4_ - 0.22222222222222232 t_19,5_ + 0.22222222222222232 t_19,6_ + 0.6666666666666665 t_19,7_ + 1.1111111111111112 t_19,8_ + 1.5555555555555554 t_19,9_ + 2 t_19,10_ - 1 x_19_ = 0
c58: 1 y_20,1_ + 1 y_20,2_ + 1 y_20,3_ + 1 y_20,4_ + 1 y_20,5_ + 1 y_20,6_ + 1 y_20,7_ + 1 y_20,8_ + 1 y_20,9_ = 1
c59: 1 t_20,1_ + 1 t_20,2_ + 1 t_20,3_ + 1 t_20,4_ + 1 t_20,5_ + 1 t_20,6_ + 1 t_20,7_ + 1 t_20,8_ + 1 t_20,9_ + 1 t_20,10_ = 1
c60: -2 t_20,1_ - 1.5555555555555554 t_20,2_ - 1.1111111111111112 t_20,3_ - 0.6666666666666669 t_20,4_ - 0.22222222222222232 t_20,5_ + 0.22222222222222232 t_20,6_ + 0.6666666666666665 t_20,7_ + 1.1111111111111112 t_20,8_ + 1.5555555555555554 t_20,9_ + 2 t_20,10_ - 1 x_20_ = 0
Bounds
x_1_ <= 2
x_2_ <= 2
x_3_ <= 2
x_4_ <= 2
x_5_ <= 2
x_6_ <= 2
x_7_ <= 2
x_8_ <= 2
x_9_ <= 2
x_10_ <= 2
x_11_ <= 2
x_12_ <= 2
x_13_ <= 2
x_14_ <= 2
x_15_ <= 2
x_16_ <= 2
x_17_ <= 2
x_18_ <= 2
x_19_ <= 2
x_20_ <= 2
t_1,1_ >= 0
t_2,1_ >= 0
t_3,1_ >= 0
t_4,1_ >= 0
t_5,1_ >= 0
t_6,1_ >= 0
t_7,1_ >= 0
t_8,1_ >= 0
t_9,1_ >= 0
t_10,1_ >= 0
t_11,1_ >= 0
t_12,1_ >= 0
t_13,1_ >= 0
t_14,1_ >= 0
t_15,1_ >= 0
t_16,1_ >= 0
t_17,1_ >= 0
t_18,1_ >= 0
t_19,1_ >= 0
t_20,1_ >= 0
t_1,2_ >= 0
t_2,2_ >= 0
t_3,2_ >= 0
t_4,2_ >= 0
t_5,2_ >= 0
t_6,2_ >= 0
t_7,2_ >= 0
t_8,2_ >= 0
t_9,2_ >= 0
t_10,2_ >= 0
t_11,2_ >= 0
t_12,2_ >= 0
t_13,2_ >= 0
t_14,2_ >= 0
t_15,2_ >= 0
t_16,2_ >= 0
t_17,2_ >= 0
t_18,2_ >= 0
t_19,2_ >= 0
t_20,2_ >= 0
t_1,3_ >= 0
t_2,3_ >= 0
t_3,3_ >= 0
t_4,3_ >= 0
t_5,3_ >= 0
t_6,3_ >= 0
t_7,3_ >= 0
t_8,3_ >= 0
t_9,3_ >= 0
t_10,3_ >= 0
t_11,3_ >= 0
t_12,3_ >= 0
t_13,3_ >= 0
t_14,3_ >= 0
t_15,3_ >= 0
t_16,3_ >= 0
t_17,3_ >= 0
t_18,3_ >= 0
t_19,3_ >= 0
t_20,3_ >= 0
t_1,4_ >= 0
t_2,4_ >= 0
t_3,4_ >= 0
t_4,4_ >= 0
t_5,4_ >= 0
t_6,4_ >= 0
t_7,4_ >= 0
t_8,4_ >= 0
t_9,4_ >= 0
t_10,4_ >= 0
t_11,4_ >= 0
t_12,4_ >= 0
t_13,4_ >= 0
t_14,4_ >= 0
t_15,4_ >= 0
t_16,4_ >= 0
t_17,4_ >= 0
t_18,4_ >= 0
t_19,4_ >= 0
t_20,4_ >= 0
t_1,5_ >= 0
t_2,5_ >= 0
t_3,5_ >= 0
t_4,5_ >= 0
t_5,5_ >= 0
t_6,5_ >= 0
t_7,5_ >= 0
t_8,5_ >= 0
t_9,5_ >= 0
t_10,5_ >= 0
t_11,5_ >= 0
t_12,5_ >= 0
t_13,5_ >= 0
t_14,5_ >= 0
t_15,5_ >= 0
t_16,5_ >= 0
t_17,5_ >= 0
t_18,5_ >= 0
t_19,5_ >= 0
t_20,5_ >= 0
t_1,6_ >= 0
t_2,6_ >= 0
t_3,6_ >= 0
t_4,6_ >= 0
t_5,6_ >= 0
t_6,6_ >= 0
t_7,6_ >= 0
t_8,6_ >= 0
t_9,6_ >= 0
t_10,6_ >= 0
t_11,6_ >= 0
t_12,6_ >= 0
t_13,6_ >= 0
t_14,6_ >= 0
t_15,6_ >= 0
t_16,6_ >= 0
t_17,6_ >= 0
t_18,6_ >= 0
t_19,6_ >= 0
t_20,6_ >= 0
t_1,7_ >= 0
t_2,7_ >= 0
t_3,7_ >= 0
t_4,7_ >= 0
t_5,7_ >= 0
t_6,7_ >= 0
t_7,7_ >= 0
t_8,7_ >= 0
t_9,7_ >= 0
t_10,7_ >= 0
t_11,7_ >= 0
t_12,7_ >= 0
t_13,7_ >= 0
t_14,7_ >= 0
t_15,7_ >= 0
t_16,7_ >= 0
t_17,7_ >= 0
t_18,7_ >= 0
t_19,7_ >= 0
t_20,7_ >= 0
t_1,8_ >= 0
t_2,8_ >= 0
t_3,8_ >= 0
t_4,8_ >= 0
t_5,8_ >= 0
t_6,8_ >= 0
t_7,8_ >= 0
t_8,8_ >= 0
t_9,8_ >= 0
t_10,8_ >= 0
t_11,8_ >= 0
t_12,8_ >= 0
t_13,8_ >= 0
t_14,8_ >= 0
t_15,8_ >= 0
t_16,8_ >= 0
t_17,8_ >= 0
t_18,8_ >= 0
t_19,8_ >= 0
t_20,8_ >= 0
t_1,9_ >= 0
t_2,9_ >= 0
t_3,9_ >= 0
t_4,9_ >= 0
t_5,9_ >= 0
t_6,9_ >= 0
t_7,9_ >= 0
t_8,9_ >= 0
t_9,9_ >= 0
t_10,9_ >= 0
t_11,9_ >= 0
t_12,9_ >= 0
t_13,9_ >= 0
t_14,9_ >= 0
t_15,9_ >= 0
t_16,9_ >= 0
t_17,9_ >= 0
t_18,9_ >= 0
t_19,9_ >= 0
t_20,9_ >= 0
t_1,10_ >= 0
t_2,10_ >= 0
t_3,10_ >= 0
t_4,10_ >= 0
t_5,10_ >= 0
t_6,10_ >= 0
t_7,10_ >= 0
t_8,10_ >= 0
t_9,10_ >= 0
t_10,10_ >= 0
t_11,10_ >= 0
t_12,10_ >= 0
t_13,10_ >= 0
t_14,10_ >= 0
t_15,10_ >= 0
t_16,10_ >= 0
t_17,10_ >= 0
t_18,10_ >= 0
t_19,10_ >= 0
t_20,10_ >= 0
x_1_ >= -2
x_2_ >= -2
x_3_ >= -2
x_4_ >= -2
x_5_ >= -2
x_6_ >= -2
x_7_ >= -2
x_8_ >= -2
x_9_ >= -2
x_10_ >= -2
x_11_ >= -2
x_12_ >= -2
x_13_ >= -2
x_14_ >= -2
x_15_ >= -2
x_16_ >= -2
x_17_ >= -2
x_18_ >= -2
x_19_ >= -2
x_20_ >= -2
Binary
y_1,1_
y_2,1_
y_3,1_
y_4,1_
y_5,1_
y_6,1_
y_7,1_
y_8,1_
y_9,1_
y_10,1_
y_11,1_
y_12,1_
y_13,1_
y_14,1_
y_15,1_
y_16,1_
y_17,1_
y_18,1_
y_19,1_
y_20,1_
y_1,2_
y_2,2_
y_3,2_
y_4,2_
y_5,2_
y_6,2_
y_7,2_
y_8,2_
y_9,2_
y_10,2_
y_11,2_
y_12,2_
y_13,2_
y_14,2_
y_15,2_
y_16,2_
y_17,2_
y_18,2_
y_19,2_
y_20,2_
y_1,3_
y_2,3_
y_3,3_
y_4,3_
y_5,3_
y_6,3_
y_7,3_
y_8,3_
y_9,3_
y_10,3_
y_11,3_
y_12,3_
y_13,3_
y_14,3_
y_15,3_
y_16,3_
y_17,3_
y_18,3_
y_19,3_
y_20,3_
y_1,4_
y_2,4_
y_3,4_
y_4,4_
y_5,4_
y_6,4_
y_7,4_
y_8,4_
y_9,4_
y_10,4_
y_11,4_
y_12,4_
y_13,4_
y_14,4_
y_15,4_
y_16,4_
y_17,4_
y_18,4_
y_19,4_
y_20,4_
y_1,5_
y_2,5_
y_3,5_
y_4,5_
y_5,5_
y_6,5_
y_7,5_
y_8,5_
y_9,5_
y_10,5_
y_11,5_
y_12,5_
y_13,5_
y_14,5_
y_15,5_
y_16,5_
y_17,5_
y_18,5_
y_19,5_
y_20,5_
y_1,6_
y_2,6_
y_3,6_
y_4,6_
y_5,6_
y_6,6_
y_7,6_
y_8,6_
y_9,6_
y_10,6_
y_11,6_
y_12,6_
y_13,6_
y_14,6_
y_15,6_
y_16,6_
y_17,6_
y_18,6_
y_19,6_
y_20,6_
y_1,7_
y_2,7_
y_3,7_
y_4,7_
y_5,7_
y_6,7_
y_7,7_
y_8,7_
y_9,7_
y_10,7_
y_11,7_
y_12,7_
y_13,7_
y_14,7_
y_15,7_
y_16,7_
y_17,7_
y_18,7_
y_19,7_
y_20,7_
y_1,8_
y_2,8_
y_3,8_
y_4,8_
y_5,8_
y_6,8_
y_7,8_
y_8,8_
y_9,8_
y_10,8_
y_11,8_
y_12,8_
y_13,8_
y_14,8_
y_15,8_
y_16,8_
y_17,8_
y_18,8_
y_19,8_
y_20,8_
y_1,9_
y_2,9_
y_3,9_
y_4,9_
y_5,9_
y_6,9_
y_7,9_
y_8,9_
y_9,9_
y_10,9_
y_11,9_
y_12,9_
y_13,9_
y_14,9_
y_15,9_
y_16,9_
y_17,9_
y_18,9_
y_19,9_
y_20,9_
End
